70
1 0 1
2 0 3
3 0 2
3 1 3
3 2 3
4 1 1
4 3 2
5 0 3
5 1 2
5 2 3
5 4 1
6 3 1
6 5 2
7 3 1
7 4 2
7 5 2
7 6 2
8 2 3
8 3 2
8 4 1
8 5 1
9 2 2
9 5 3
9 8 3
10 0 2
10 1 3
10 2 2
10 5 3
10 7 3
10 9 1
11 0 2
11 1 1
11 6 2
11 9 1
12 1 2
12 2 1
12 5 3
12 7 1
12 8 3
12 9 3
12 10 2
13 1 3
13 9 1
13 10 1
14 0 1
14 1 3
14 3 2
14 5 1
14 6 3
14 10 2
14 13 3
15 0 2
15 1 1
15 3 3
15 5 1
15 6 1
15 9 3
15 10 3
15 11 1
15 13 2
15 14 2
16 2 1
16 3 1
16 4 3
16 5 1
16 9 3
16 11 3
16 13 3
16 14 1
16 15 1
17 0 1
17 1 1
17 2 1
17 3 2
17 4 2
17 6 1
17 7 1
17 8 1
17 10 1
17 11 1
17 13 3
17 14 1
17 16 2
18 2 1
18 3 3
18 6 2
18 8 3
18 10 1
18 12 2
18 14 1
18 15 3
18 17 3
19 0 3
19 3 3
19 5 3
19 6 2
19 7 2
19 8 1
19 10 1
19 11 1
19 15 1
19 16 3
19 18 1
20 0 1
20 3 2
20 5 2
20 8 1
20 11 3
20 15 1
20 17 3
21 0 3
21 1 2
21 4 1
21 5 1
21 7 3
21 9 2
21 11 1
21 13 2
21 15 3
21 16 2
21 17 2
21 20 1
22 0 2
22 1 2
22 2 1
22 3 3
22 4 1
22 7 2
22 8 3
22 9 2
22 11 1
22 13 3
23 0 1
23 1 1
23 2 1
23 3 3
23 4 3
23 7 3
23 8 3
23 9 2
23 10 1
23 13 2
23 15 2
24 1 1
24 3 3
24 4 3
24 6 3
24 7 1
24 8 2
24 13 1
24 14 2
24 18 3
24 19 3
24 20 3
24 22 3
24 23 2
25 1 2
25 3 1
25 5 1
25 7 1
25 9 1
25 10 2
25 14 1
25 15 2
25 19 1
26 0 1
26 1 2
26 3 2
26 6 1
26 7 1
26 8 1
26 11 1
26 12 1
26 14 1
26 15 2
26 16 3
26 17 3
26 18 2
26 19 1
26 23 3
26 25 1
27 0 1
27 3 2
27 5 1
27 7 1
27 8 3
27 9 1
27 10 3
27 13 1
27 15 3
27 16 1
27 17 2
27 18 2
27 19 1
27 20 3
27 21 3
27 25 1
27 26 2
28 1 3
28 2 1
28 3 1
28 4 3
28 5 3
28 6 1
28 10 3
28 11 2
28 12 3
28 14 3
28 16 2
28 19 2
28 20 3
28 22 3
28 25 1
29 1 1
29 5 3
29 6 1
29 8 1
29 9 2
29 13 2
29 15 1
29 16 2
29 18 3
29 19 2
29 20 3
29 23 3
29 25 3
29 27 2
29 28 3
30 4 2
30 6 1
30 9 2
30 12 3
30 13 2
30 14 3
30 19 3
30 20 1
30 22 3
30 23 3
30 24 2
30 25 1
30 26 2
30 27 2
30 28 3
31 2 1
31 6 3
31 8 1
31 10 3
31 11 3
31 12 2
31 13 2
31 15 2
31 16 1
31 19 1
31 21 3
31 23 1
31 24 3
31 25 3
31 26 3
31 27 3
31 28 1
31 30 2
32 3 1
32 5 2
32 6 3
32 7 2
32 8 1
32 9 1
32 10 1
32 13 2
32 15 3
32 18 2
32 19 3
32 20 3
32 23 3
32 28 1
32 29 3
32 30 2
33 1 3
33 2 1
33 3 2
33 7 3
33 9 1
33 10 1
33 12 2
33 17 3
33 19 2
33 22 3
33 23 1
33 24 3
33 25 2
33 26 2
33 29 2
33 30 3
33 31 2
33 32 1
34 1 3
34 2 3
34 3 1
34 5 1
34 6 2
34 11 2
34 12 1
34 15 2
34 17 3
34 18 1
34 21 3
34 22 3
34 23 1
34 25 2
34 27 3
34 28 1
34 31 1
34 32 3
35 1 2
35 2 3
35 3 1
35 4 3
35 5 1
35 6 3
35 7 3
35 8 2
35 10 3
35 13 3
35 14 1
35 15 1
35 16 2
35 17 2
35 19 1
35 22 3
35 23 2
35 25 3
35 26 1
35 27 1
35 28 3
35 29 1
35 30 3
35 32 1
35 33 3
35 34 3
36 3 3
36 4 3
36 5 1
36 6 1
36 7 3
36 8 2
36 12 2
36 13 3
36 18 3
36 19 2
36 20 3
36 21 2
36 27 2
36 28 2
36 30 1
36 32 1
36 33 2
36 34 2
37 0 3
37 3 1
37 4 2
37 5 2
37 8 1
37 11 2
37 14 1
37 15 3
37 16 3
37 18 2
37 19 1
37 20 2
37 21 1
37 22 2
37 26 1
37 28 2
37 31 2
37 32 2
37 34 2
37 35 1
38 0 3
38 1 1
38 2 2
38 3 3
38 4 3
38 5 3
38 9 2
38 10 3
38 12 3
38 18 2
38 19 2
38 20 3
38 21 1
38 24 2
38 25 2
38 26 3
38 29 3
38 30 2
38 34 2
38 35 2
38 36 2
39 2 3
39 3 1
39 5 1
39 6 3
39 7 2
39 8 2
39 12 2
39 13 1
39 14 2
39 15 3
39 16 1
39 18 2
39 19 1
39 21 2
39 23 2
39 24 2
39 27 3
39 28 2
39 29 1
39 30 2
39 31 2
39 32 2
39 33 1
39 35 1
39 38 1
40 0 3
40 1 1
40 3 2
40 7 2
40 12 1
40 15 2
40 16 2
40 17 3
40 22 1
40 24 1
40 27 1
40 28 2
40 30 1
40 34 1
40 36 2
40 37 1
41 2 1
41 4 1
41 12 3
41 14 3
41 15 3
41 16 3
41 19 1
41 20 2
41 22 3
41 25 3
41 26 1
41 27 1
41 30 1
41 32 2
41 33 1
41 34 1
41 36 3
41 38 2
41 39 1
42 0 3
42 1 2
42 6 2
42 7 1
42 9 2
42 10 1
42 11 2
42 18 3
42 22 2
42 23 2
42 24 3
42 25 3
42 26 3
42 27 1
42 29 2
42 32 1
42 33 3
42 34 1
42 36 3
42 37 3
42 40 1
43 2 1
43 4 2
43 5 1
43 8 2
43 13 3
43 15 1
43 17 3
43 18 2
43 19 2
43 20 2
43 22 3
43 27 2
43 29 1
43 32 3
43 33 1
43 34 2
43 37 2
43 38 3
44 0 2
44 1 2
44 2 1
44 3 2
44 5 1
44 6 1
44 7 3
44 9 2
44 11 1
44 15 1
44 16 3
44 18 2
44 19 3
44 21 1
44 22 3
44 23 1
44 26 2
44 30 1
44 31 3
44 33 1
44 34 1
44 37 3
44 38 2
44 39 1
44 41 3
45 0 2
45 1 1
45 2 2
45 6 1
45 7 3
45 9 1
45 10 1
45 11 2
45 12 1
45 20 3
45 21 2
45 22 1
45 23 1
45 24 3
45 25 1
45 29 3
45 30 2
45 31 2
45 34 2
45 35 3
45 38 1
45 43 3
45 44 2
46 0 3
46 1 3
46 2 1
46 5 2
46 6 3
46 8 3
46 9 2
46 10 3
46 12 3
46 13 3
46 14 1
46 17 3
46 19 3
46 20 2
46 21 1
46 23 3
46 24 2
46 26 2
46 27 2
46 28 1
46 32 1
46 34 1
46 35 2
46 38 1
46 39 1
46 41 2
46 42 1
46 43 1
47 1 3
47 5 3
47 6 1
47 8 3
47 11 1
47 12 3
47 18 3
47 20 3
47 24 1
47 27 3
47 30 1
47 38 2
47 44 1
48 0 2
48 1 3
48 2 1
48 6 2
48 7 1
48 8 3
48 9 1
48 12 2
48 13 2
48 14 2
48 15 2
48 16 2
48 22 1
48 23 1
48 24 2
48 27 3
48 30 3
48 32 3
48 33 2
48 36 2
48 39 3
48 40 2
48 41 1
48 42 1
48 43 1
48 45 1
49 3 2
49 4 2
49 5 1
49 7 3
49 9 2
49 13 2
49 15 1
49 16 3
49 17 3
49 22 2
49 23 2
49 24 3
49 27 2
49 28 2
49 29 1
49 30 1
49 31 2
49 35 3
49 36 1
49 37 1
49 39 1
49 44 1
49 45 3
49 47 1
50 0 3
50 1 2
50 2 1
50 3 3
50 4 2
50 5 3
50 9 2
50 11 2
50 12 2
50 13 3
50 14 1
50 16 2
50 18 2
50 20 2
50 21 3
50 22 3
50 23 1
50 25 1
50 26 3
50 27 2
50 28 1
50 31 1
50 33 1
50 35 3
50 36 1
50 37 2
50 39 3
50 42 1
50 43 3
50 46 2
50 47 1
50 48 1
51 0 2
51 1 2
51 5 3
51 8 1
51 10 2
51 15 2
51 18 1
51 19 3
51 20 2
51 25 1
51 29 3
51 31 2
51 34 3
51 35 2
51 36 2
51 37 2
51 38 1
51 39 2
51 44 1
52 1 1
52 3 1
52 7 1
52 9 3
52 14 2
52 15 1
52 19 1
52 20 3
52 22 2
52 24 3
52 25 3
52 26 3
52 28 3
52 36 1
52 38 3
52 39 1
52 41 3
52 47 1
52 48 3
52 50 2
53 0 2
53 3 3
53 4 2
53 6 1
53 9 2
53 10 2
53 15 1
53 16 2
53 17 1
53 18 3
53 26 3
53 27 2
53 28 3
53 31 3
53 33 1
53 35 2
53 38 3
53 40 2
53 44 2
53 45 1
53 47 3
53 49 3
53 50 3
54 2 2
54 3 1
54 4 2
54 6 3
54 7 1
54 8 3
54 9 1
54 13 1
54 14 3
54 15 1
54 16 2
54 17 1
54 21 3
54 22 3
54 23 3
54 24 1
54 25 1
54 26 3
54 29 3
54 30 2
54 31 2
54 32 1
54 40 3
54 42 3
54 44 3
54 46 2
54 47 2
54 49 1
54 50 2
54 52 3
54 53 1
55 1 2
55 2 1
55 3 1
55 6 1
55 7 3
55 9 3
55 10 3
55 14 2
55 15 1
55 20 2
55 22 2
55 25 3
55 31 1
55 32 3
55 34 3
55 43 3
55 45 2
55 47 1
55 49 3
55 54 3
56 1 2
56 4 3
56 7 1
56 9 3
56 11 2
56 13 3
56 14 1
56 18 2
56 19 2
56 21 1
56 23 3
56 25 3
56 26 1
56 28 2
56 34 3
56 38 3
56 39 3
56 40 1
56 43 2
56 44 2
56 45 1
56 46 3
56 48 3
56 51 3
56 54 1
56 55 2
57 0 1
57 1 2
57 5 3
57 7 1
57 9 3
57 10 3
57 14 3
57 16 1
57 17 2
57 19 2
57 20 3
57 27 3
57 28 1
57 29 1
57 32 1
57 34 2
57 35 1
57 40 1
57 44 2
57 49 2
57 50 1
57 51 2
57 53 1
57 56 3
58 2 2
58 3 1
58 6 2
58 7 1
58 9 1
58 10 1
58 12 2
58 13 3
58 14 1
58 18 3
58 21 3
58 23 2
58 24 3
58 25 3
58 26 3
58 27 2
58 30 1
58 31 3
58 35 2
58 37 2
58 38 3
58 41 3
58 42 1
58 44 1
58 48 3
58 49 2
58 51 3
58 53 1
58 54 3
58 55 3
58 56 2
58 57 2
59 0 3
59 2 1
59 3 1
59 4 3
59 5 2
59 6 3
59 7 3
59 8 3
59 17 2
59 19 1
59 21 3
59 22 3
59 23 1
59 24 3
59 26 3
59 29 1
59 30 1
59 34 2
59 35 3
59 38 1
59 40 2
59 42 1
59 43 3
59 47 3
59 48 1
59 49 3
59 50 1
59 55 3
59 57 1
60 1 3
60 2 2
60 5 2
60 6 1
60 10 2
60 14 3
60 15 2
60 19 1
60 21 2
60 22 3
60 24 3
60 29 1
60 32 2
60 34 1
60 35 2
60 36 1
60 37 3
60 38 2
60 39 2
60 40 3
60 41 1
60 43 3
60 47 2
60 51 2
60 52 1
61 0 2
61 1 3
61 7 1
61 10 3
61 11 1
61 12 1
61 13 3
61 14 1
61 19 2
61 20 2
61 23 2
61 26 3
61 28 2
61 29 1
61 30 3
61 33 3
61 34 2
61 36 2
61 38 1
61 40 1
61 44 2
61 45 1
61 49 2
61 50 2
61 53 3
61 55 3
61 56 1
62 0 3
62 2 2
62 3 3
62 7 2
62 9 1
62 10 2
62 13 1
62 14 3
62 19 1
62 21 3
62 23 3
62 27 3
62 28 3
62 29 2
62 35 2
62 37 1
62 40 1
62 41 1
62 43 3
62 44 1
62 46 3
62 47 2
62 50 1
62 51 2
62 55 2
62 56 3
62 59 3
62 60 2
63 0 2
63 2 2
63 6 3
63 7 3
63 9 1
63 14 1
63 15 3
63 16 3
63 18 1
63 19 3
63 21 3
63 22 2
63 23 2
63 27 2
63 30 2
63 33 1
63 34 2
63 36 1
63 37 1
63 41 3
63 42 3
63 43 2
63 45 1
63 48 3
63 54 1
63 55 1
63 57 3
63 60 1
63 61 3
64 0 3
64 1 3
64 3 1
64 4 3
64 7 2
64 8 2
64 9 3
64 11 3
64 14 2
64 15 2
64 16 2
64 18 2
64 20 3
64 21 2
64 22 2
64 25 1
64 29 2
64 32 1
64 34 1
64 36 1
64 39 3
64 40 3
64 41 3
64 43 1
64 47 2
64 48 3
64 49 1
64 50 2
64 53 3
64 60 3
64 61 3
64 62 1
64 63 2
65 0 3
65 1 2
65 3 1
65 5 1
65 6 1
65 11 3
65 13 1
65 14 1
65 16 3
65 19 2
65 20 3
65 22 2
65 25 1
65 26 1
65 27 3
65 29 2
65 31 2
65 33 3
65 34 1
65 37 1
65 40 2
65 41 2
65 43 1
65 44 2
65 46 3
65 48 1
65 49 1
65 50 1
65 53 2
65 58 1
65 60 2
65 61 2
65 62 3
65 63 1
66 0 3
66 1 2
66 4 3
66 6 2
66 9 2
66 10 2
66 11 1
66 12 1
66 13 2
66 15 3
66 16 3
66 17 2
66 18 3
66 22 2
66 25 2
66 32 1
66 33 3
66 35 3
66 36 3
66 37 3
66 38 1
66 39 2
66 40 1
66 41 3
66 44 2
66 45 2
66 46 1
66 52 3
66 55 3
66 58 2
66 59 2
66 62 1
66 63 3
67 0 3
67 4 3
67 5 3
67 7 2
67 10 2
67 11 2
67 15 3
67 17 2
67 18 3
67 20 3
67 23 3
67 28 2
67 32 1
67 34 1
67 35 1
67 36 3
67 43 3
67 45 3
67 46 1
67 49 2
67 50 1
67 51 1
67 52 3
67 53 1
67 54 3
67 55 3
67 57 3
67 58 1
67 59 2
67 60 1
67 61 3
67 62 2
67 63 3
67 64 1
67 66 3
68 0 3
68 1 2
68 5 1
68 8 2
68 9 1
68 10 2
68 12 1
68 13 3
68 18 2
68 22 2
68 23 3
68 24 3
68 26 2
68 27 2
68 28 1
68 29 3
68 30 3
68 31 1
68 35 2
68 37 1
68 39 3
68 44 3
68 46 2
68 47 1
68 55 2
68 56 3
68 57 3
68 59 2
68 62 1
68 63 1
68 65 1
69 1 3
69 3 3
69 5 3
69 6 3
69 9 1
69 11 2
69 13 1
69 17 2
69 24 1
69 27 1
69 30 1
69 36 2
69 37 3
69 39 2
69 42 3
69 43 1
69 44 1
69 47 1
69 48 1
69 51 1
69 52 3
69 54 3
69 55 3
69 56 2
69 58 1
69 59 1
69 60 1
69 61 1
69 62 3
69 64 1
69 65 1
69 66 1
69 68 2
